Optimal - objective value 10.00000000
      0 x_0_0                       1                       1
      2 x_1_1                       1                       1
      5 x_2_2                       1                       1
      9 x_3_3                       1                       1
     14 x_4_4                       1                       1
     20 x_5_5                       1                       0
     27 x_6_6                       1                       1
     35 x_7_7                       1                       1
     44 x_8_8                       1                       1
     47 x_9_2                       1                       0
     61 x_10_6                      1                       0
     69 x_11_3                      1                      -1
     82 x_12_4                      1                       0
     97 x_13_6                      1                      -1
    109 x_14_4                      1                      -1
    120 x_15_0                      1                      -1
    143 x_16_7                      1                       0
    154 x_17_1                      1                       0
    189 x_18_18                     1                       1
    195 x_19_5                      1                       0
    228 x_20_18                     1                      -1
    231 x_21_0                      1                       0
    260 x_22_7                      1                       0
    279 x_23_3                      1                       0
    318 x_24_18                     1                       0
    331 x_25_6                      1                       0
    352 x_26_1                      1                       0
    396 x_27_18                     1                       0
    414 x_28_8                      1                      -1
    443 x_29_8                      1                      -1
    468 x_30_3                      1                       0
    502 x_31_6                      1                      -1
    533 x_32_5                      1                       0
    568 x_33_7                      1                       0
    602 x_34_7                      1                       0
    648 x_35_18                     1                       0
    669 x_36_3                      1                      -1
    708 x_37_5                      1                       0
    743 x_38_2                      1                      -1
    788 x_39_8                      1                       0
    822 x_40_2                      1                       0
    864 x_41_3                      1                       0
    921 x_42_18                     1                       0
    964 x_43_18                     1                       0
    992 x_44_2                      1                       0
   1036 x_45_1                      1                       0
   1086 x_46_5                      1                       0
   1128 x_47_0                      1                       0
   1180 x_48_4                      1                       0
   1243 x_49_18                     1                       0
   1276 x_50_1                      1                       0
   1334 x_51_8                      1                       0
   1380 x_52_2                      1                       0
   1434 x_53_3                      1                       0
